
<<< setup


<<< generate

Version identifier: 12.10.0.0 | 2019-11-26 | 843d4de2ae
CPXPARAM_TimeLimit                               1200
Tried aggregator 2 times.
MIP Presolve eliminated 5179094 rows and 2942730 columns.
MIP Presolve modified 422250 coefficients.
Aggregator did 1618 substitutions.
Reduced MIP has 69938 rows, 74702 columns, and 444071 nonzeros.
Reduced MIP has 74652 binaries, 0 generals, 0 SOSs, and 0 indicators.
Presolve time = 6.23 sec. (3788.01 ticks)
Found incumbent of value 0.000000 after 9.05 sec. (4851.75 ticks)
Probing time = 0.36 sec. (33.02 ticks)
Tried aggregator 1 time.
Detecting symmetries...
Reduced MIP has 69938 rows, 74702 columns, and 444071 nonzeros.
Reduced MIP has 74652 binaries, 0 generals, 0 SOSs, and 0 indicators.
Presolve time = 0.64 sec. (352.33 ticks)
Probing time = 0.23 sec. (27.92 ticks)
Clique table members: 250939.
MIP emphasis: balance optimality and feasibility.
MIP search method: dynamic search.
Parallel mode: deterministic, using up to 4 threads.
Root relaxation solution time = 10.30 sec. (5517.71 ticks)

        Nodes                                         Cuts/
   Node  Left     Objective  IInf  Best Integer    Best Bound    ItCnt     Gap

*     0+    0                            0.0000   128014.0000              --- 
      0     0   128014.0000  1182        0.0000   128014.0000    14993     --- 
      0     0   128014.0000  1182        0.0000     Cuts: 415    45711     --- 
      0     0   128014.0000  1182        0.0000    Cuts: 9665    63452     --- 
      0     0   128014.0000  1182        0.0000    Cuts: 1159    89692     --- 
Heuristic still looking.
Heuristic still looking.
      0     2   128014.0000   471        0.0000   128014.0000    89692     --- 
Elapsed time = 742.49 sec. (458816.26 ticks, tree = 0.02 MB, solutions = 1)
      1     3   128014.0000   850        0.0000   128014.0000   112783     --- 
      2     3   128014.0000   510        0.0000   128014.0000    90216     --- 
      3     5   128014.0000   752        0.0000   128014.0000   123421     --- 
      4     4   128014.0000   886        0.0000   128014.0000   129350     --- 
      5     6   128014.0000   827        0.0000   128014.0000   133764     --- 
      6     5   128014.0000   835        0.0000   128014.0000   122865     --- 
      7     8   128014.0000  1046        0.0000   128014.0000   154174     --- 
      8     9   128014.0000  1053        0.0000   128014.0000   159594     --- 
      9    10   128014.0000   991        0.0000   128014.0000   160215     --- 
     10    11   128014.0000   911        0.0000   128014.0000   161069     --- 
Elapsed time = 860.49 sec. (525450.84 ticks, tree = 0.19 MB, solutions = 1)
     11     9   128014.0000   948        0.0000   128014.0000   166336     --- 
     12    10   128014.0000  1093        0.0000   128014.0000   173750     --- 
     14    12   128014.0000   888        0.0000   128014.0000   175473     --- 
     16     7   128014.0000   904        0.0000   128014.0000   153255     --- 
     19    11   128014.0000   998        0.0000   128014.0000   195563     --- 
     20    14   128014.0000  1071        0.0000   128014.0000   165974     --- 
     22    19   128014.0000   963        0.0000   128014.0000   209526     --- 
     23    10   128014.0000   970        0.0000   128014.0000   188078     --- 
     28    14   128014.0000   930        0.0000   128014.0000   207383     --- 
     33    13   128014.0000   934        0.0000   128014.0000   196186     --- 
Elapsed time = 908.52 sec. (547620.32 ticks, tree = 0.18 MB, solutions = 1)
     36    26   128014.0000  1015        0.0000   128014.0000   229948     --- 
     39    23   128014.0000  1157        0.0000   128014.0000   255228     --- 
     40    24   128014.0000  1052        0.0000   128014.0000   256933     --- 
     42    28   128014.0000   994        0.0000   128014.0000   259721     --- 
     44    25   128014.0000  1132        0.0000   128014.0000   260283     --- 
     48    15   128014.0000   963        0.0000   128014.0000   207871     --- 
     52    34   128014.0000  1068        0.0000   128014.0000   277150     --- 
     58    36   128014.0000  1057        0.0000   128014.0000   269982     --- 
     63    40   128014.0000  1154        0.0000   128014.0000   304233     --- 
     66    38   128014.0000  1091        0.0000   128014.0000   271869     --- 
Elapsed time = 955.41 sec. (570117.00 ticks, tree = 0.82 MB, solutions = 1)
     68    42   128014.0000  1098        0.0000   128014.0000   307015     --- 
     74    52   128014.0000  1060        0.0000   128014.0000   317444     --- 
     79    58   128014.0000  1088        0.0000   128014.0000   324581     --- 
     82    55   128014.0000  1014        0.0000   128014.0000   319298     --- 
     84    56   128014.0000  1059        0.0000   128014.0000   320725     --- 
     87    58   128014.0000  1071        0.0000   128014.0000   323004     --- 
     90    62   128014.0000  1031        0.0000   128014.0000   330043     --- 
     92    61   128014.0000  1024        0.0000   128014.0000   324599     --- 
     93    63   128014.0000  1075        0.0000   128014.0000   332059     --- 
     95    65   128014.0000  1035        0.0000   128014.0000   333417     --- 
Elapsed time = 990.94 sec. (585496.39 ticks, tree = 1.42 MB, solutions = 1)
     97    67   128014.0000  1013        0.0000   128014.0000   335005     --- 
     98    66    infeasible              0.0000   128014.0000   336405     --- 
    100    66    infeasible              0.0000   128014.0000   338716     --- 
    102    68   128014.0000   993        0.0000   128014.0000   340069     --- 
    104    70   128014.0000  1023        0.0000   128014.0000   340861     --- 
    106    72   128014.0000  1043        0.0000   128014.0000   342462     --- 
    109    74   128014.0000  1008        0.0000   128014.0000   343626     --- 
    111    85    infeasible              0.0000   128014.0000   371662     --- 
    113    79   128014.0000  1044        0.0000   128014.0000   364723     --- 
    115    85    infeasible              0.0000   128014.0000   373307     --- 
Elapsed time = 1030.20 sec. (602524.53 ticks, tree = 1.89 MB, solutions = 1)
    117    81   128014.0000  1000        0.0000   128014.0000   372372     --- 
    119    83   128014.0000  1009        0.0000   128014.0000   374902     --- 
    121    92   128014.0000  1022        0.0000   128014.0000   386627     --- 
    123    94   128014.0000   999        0.0000   128014.0000   391534     --- 
    125    96   128014.0000   961        0.0000   128014.0000   396394     --- 
    126    97   128014.0000   967        0.0000   128014.0000   402867     --- 
    128    99   128014.0000   916        0.0000   128014.0000   406127     --- 
    129   100   128014.0000   960        0.0000   128014.0000   409088     --- 
    131   102   128014.0000   962        0.0000   128014.0000   415096     --- 
    133   104   128014.0000   898        0.0000   128014.0000   418875     --- 
Elapsed time = 1076.11 sec. (621962.36 ticks, tree = 2.46 MB, solutions = 1)
    135    85   128014.0000  1241        0.0000   128014.0000   379500     --- 
    138   108   128014.0000   874        0.0000   128014.0000   426055     --- 
    140   109   128014.0000   897        0.0000   128014.0000   428880     --- 
    145   107   128014.0000  1163        0.0000   128014.0000   443271     --- 
    147   111   128014.0000   830        0.0000   128014.0000   434825     --- 
    150    47   128014.0000  1140        0.0000   128014.0000   312421     --- 
    155   116   128014.0000  1115        0.0000   128014.0000   445086     --- 
    159   118   128014.0000  1080        0.0000   128014.0000   450959     --- 
    161   115   128014.0000  1089        0.0000   128014.0000   464148     --- 
    165   114   128014.0000   793        0.0000   128014.0000   451166     --- 
Elapsed time = 1106.80 sec. (634451.72 ticks, tree = 2.81 MB, solutions = 1)
    166   122   128014.0000  1175        0.0000   128014.0000   461348     --- 
    170   115   128014.0000   842        0.0000   128014.0000   453878     --- 
    176   126   128014.0000  1090        0.0000   128014.0000   471658     --- 
    181   141   128014.0000   801        0.0000   128014.0000   525828     --- 
    190   130   128014.0000  1067        0.0000   128014.0000   480566     --- 
    196   132   128014.0000  1126        0.0000   128014.0000   497820     --- 
    203   152   128014.0000  1050        0.0000   128014.0000   529741     --- 
    205   153   128014.0000  1072        0.0000   128014.0000   533018     --- 
    208   134   128014.0000  1084        0.0000   128014.0000   507162     --- 
    213   136   128014.0000  1068        0.0000   128014.0000   510814     --- 
Elapsed time = 1136.17 sec. (649256.01 ticks, tree = 3.20 MB, solutions = 1)
    216   158   128014.0000  1078        0.0000   128014.0000   544953     --- 
    219   149    infeasible              0.0000   128014.0000   561945     --- 
    223   162   128014.0000  1075        0.0000   128014.0000   554279     --- 
    225   134   128014.0000  1017        0.0000   128014.0000   493942     --- 
    229   184   128014.0000  1069        0.0000   128014.0000   632505     --- 
    232   169   128014.0000   602        0.0000   128014.0000   594917     --- 
    240   188   128014.0000  1023        0.0000   128014.0000   641194     --- 
    244   165   128014.0000  1025        0.0000   128014.0000   569922     --- 
    249   189   128014.0000  1073        0.0000   128014.0000   648157     --- 
    255   138   128014.0000  1082        0.0000   128014.0000   520571     --- 
Elapsed time = 1168.06 sec. (664790.23 ticks, tree = 3.28 MB, solutions = 1)
    256   191   128014.0000  1033        0.0000   128014.0000   653681     --- 
    260   212   128014.0000  1006        0.0000   128014.0000   718026     --- 
    262   174   128014.0000   586        0.0000   128014.0000   614178     --- 
    268   176   128014.0000   543        0.0000   128014.0000   621338     --- 
    271   197   128014.0000  1206        0.0000   128014.0000   680199     --- 
    276   217   128014.0000   982        0.0000   128014.0000   729223     --- 
    282   219   128014.0000   975        0.0000   128014.0000   731071     --- 
Starting limited solution polishing.
    286   202   128014.0000   962        0.0000   128014.0000   690524     --- 
    292   222   128014.0000   958        0.0000   128014.0000   738141     --- 
    316   199   128014.0000   986        0.0000   128014.0000   685362     --- 
Elapsed time = 1199.05 sec. (679756.65 ticks, tree = 5.08 MB, solutions = 1)

Implied bound cuts applied:  700
Flow cuts applied:  18
Mixed integer rounding cuts applied:  10

Root node processing (before b&c):
  Real time             =  725.74 sec. (452683.61 ticks)
Parallel b&c, 4 threads:
  Real time             =  474.80 sec. (230544.69 ticks)
  Sync time (average)   =   74.35 sec.
  Wait time (average)   =    0.00 sec.
                          ------------
Total (root+branch&cut) = 1200.53 sec. (683228.30 ticks)

<<< solve


OBJECTIVE: 0

<<< post process


<<< done

